(set-logic UFLIA)
(declare-fun x () Bool)
(declare-fun y () Bool)
(declare-fun a () Bool)
(declare-fun b () Bool)
;(declare-fun f (Bool Bool Bool) Bool)
(assert (not (= (and (or x y false) a) (and (or x y) b))))
(assert (= a b))
(check-sat)
(exit)
